Route 1: 0 82 30 72 83 8 95 90 0
Route 2: 0 92 23 43 57 87 76 0
Route 3: 0 51 41 34 24 15 36 5 67 40 86 0
Route 4: 0 93 98 63 33 69 61 13 10 28 0
Route 5: 0 9 35 66 60 49 70 81 37 0
Route 6: 0 55 80 3 6 17 99 0
Route 7: 0 7 84 79 16 48 20 59 0
Route 8: 0 68 96 65 78 50 22 47 64 89 11 0
Route 9: 0 27 100 42 45 32 58 53 54 21 56 0
Route 10: 0 18 29 62 97 39 44 2 73 31 91 0
Route 11: 0 85 12 71 4 14 19 0
Route 12: 0 94 46 25 77 38 26 74 0
Route 13: 0 52 75 88 1 0
